sat
(:max-memory         18.53
 :memory             18.43
 :nlsat-arith-var    4
 :nlsat-atoms        6
 :nlsat-bool-var     1
 :nlsat-clauses      6
 :nlsat-propagations 6
 :nlsat-stages       5
 :num-allocs         87773
 :rlimit-count       4162
 :time               0.00
 :total-time         0.02)
